NAME : LPS-n28-m147
COMMENT : (Lartu-Peter-Santi Plot, instance 10147 out of 39200. 28 customers.)
TYPE : CVRP
DIMENSION : 28
EDGE_WEIGHT_TYPE : EUC_2D
CAPACITY : 134
NODE_COORD_SECTION
 1 22 86
 2 58 12
 3 87 93
 4 90 82
 5 91 41
 6 25 78
 7 18 73
 8 60 15
 9 37 63
 10 25 48
 11 76 67
 12 90 59
 13 28 85
 14 37 47
 15 42 77
 16 6 79
 17 78 42
 18 4 86
 19 26 21
 20 55 1
 21 66 27
 22 92 53
 23 2 3
 24 10 74
 25 13 48
 26 17 71
 27 94 67
 28 0 98
DEMAND_SECTION
1 0
2 12
3 52
4 80
5 97
6 111
7 39
8 25
9 101
10 78
11 31
12 23
13 94
14 71
15 44
16 122
17 41
18 86
19 115
20 72
21 7
22 42
23 64
24 10
25 71
26 47
27 63
28 95
DEPOT_SECTION
 1
 -1
EOF
